min: c;

c = 3.9340489384277 * u5_t4_h2 + 3.9340489384277 * u5_t7_h2 + 3.04949066782038 * u5_t4_h3 + 3.04949066782038 * u5_t7_h3 + 3.59474633127573 * u5_t1_h4 + 3.59474633127573 * u5_t3_h4 + 3.59474633127573 * u5_t4_h4 + 3.59474633127573 * u5_t7_h4 + 3.22868516277264 * u5_t1_h5 + 3.22868516277264 * u5_t3_h5 + 3.22868516277264 * u5_t4_h5 + 3.22868516277264 * u5_t7_h5 + 3.55735801937265 * u5_t1_h6 + 3.55735801937265 * u5_t3_h6 + 3.55735801937265 * u5_t4_h6 + 3.55735801937265 * u5_t6_h6 + 3.55735801937265 * u5_t7_h6 + 4.51247764404031 * u5_t1_h7 + 4.51247764404031 * u5_t3_h7 + 4.51247764404031 * u5_t4_h7 + 4.51247764404031 * u5_t6_h7 + 5.07528794555158 * u5_t1_h8 + 5.07528794555158 * u5_t3_h8 + 5.07528794555158 * u5_t4_h8 + 5.07528794555158 * u5_t6_h8 + 5.08664599616555 * u5_t1_h9 + 5.08664599616555 * u5_t3_h9 + 5.08664599616555 * u5_t4_h9 + 5.08664599616555 * u5_t6_h9 + 4.98406635040752 * u5_t1_h10 + 4.98406635040752 * u5_t3_h10 + 4.98406635040752 * u5_t4_h10 + 4.98406635040752 * u5_t6_h10 + 3.97992170937529 * u5_t1_h11 + 3.97992170937529 * u5_t3_h11 + 3.97992170937529 * u5_t4_h11 + 3.97992170937529 * u5_t6_h11 + 6.66284936232622 * u5_t1_h12 + 6.66284936232622 * u5_t3_h12 + 6.66284936232622 * u5_t4_h12 + 6.66284936232622 * u5_t6_h12 + 4.3077220006697 * u5_t1_h13 + 4.3077220006697 * u5_t3_h13 + 4.3077220006697 * u5_t4_h13 + 4.3077220006697 * u5_t6_h13 + 4.3077220006697 * u5_t8_h13 + 5.71061201231653 * u5_t1_h14 + 5.71061201231653 * u5_t3_h14 + 5.71061201231653 * u5_t4_h14 + 5.71061201231653 * u5_t6_h14 + 5.71061201231653 * u5_t8_h14 + 5.99181895184607 * u5_t1_h15 + 5.99181895184607 * u5_t3_h15 + 5.99181895184607 * u5_t4_h15 + 5.99181895184607 * u5_t6_h15 + 5.99181895184607 * u5_t8_h15 + 5.99181895184607 * u5_t9_h15 + 6.02134074801763 * u5_t1_h16 + 6.02134074801763 * u5_t3_h16 + 6.02134074801763 * u5_t4_h16 + 6.02134074801763 * u5_t5_h16 + 6.02134074801763 * u5_t6_h16 + 6.02134074801763 * u5_t8_h16 + 6.02134074801763 * u5_t9_h16 + 6.46494978402456 * u5_t1_h17 + 6.46494978402456 * u5_t5_h17 + 6.46494978402456 * u5_t6_h17 + 6.46494978402456 * u5_t8_h17 + 6.46494978402456 * u5_t9_h17 + 6.46494978402456 * u5_t10_h17 + 6.24199204023312 * u5_t1_h18 + 6.24199204023312 * u5_t2_h18 + 6.24199204023312 * u5_t5_h18 + 6.24199204023312 * u5_t6_h18 + 6.24199204023312 * u5_t9_h18 + 6.24199204023312 * u5_t10_h18 + 5.35107114356414 * u5_t1_h19 + 5.35107114356414 * u5_t2_h19 + 5.35107114356414 * u5_t5_h19 + 5.35107114356414 * u5_t9_h19 + 5.35107114356414 * u5_t10_h19 + 5.3804913317916 * u5_t1_h20 + 5.3804913317916 * u5_t2_h20 + 5.3804913317916 * u5_t5_h20 + 5.3804913317916 * u5_t9_h20 + 5.3804913317916 * u5_t10_h20 + 5.70183596309591 * u5_t2_h21 + 5.70183596309591 * u5_t5_h21 + 5.70183596309591 * u5_t9_h21 + 5.70183596309591 * u5_t10_h21 + 5.1286987466126 * u5_t2_h22 + 5.1286987466126 * u5_t5_h22 + 5.1286987466126 * u5_t9_h22 + 5.1286987466126 * u5_t10_h22 + 5.47637569410557 * u5_t5_h23 + 5.47637569410557 * u5_t9_h23 + 5.47637569410557 * u5_t10_h23;
0 <= u5_t1_h4 <= 1;
0 <= u5_t1_h5 <= 1;
0 <= u5_t1_h6 <= 1;
0 <= u5_t1_h7 <= 1;
0 <= u5_t1_h8 <= 1;
0 <= u5_t1_h9 <= 1;
0 <= u5_t1_h10 <= 1;
0 <= u5_t1_h11 <= 1;
0 <= u5_t1_h12 <= 1;
0 <= u5_t1_h13 <= 1;
0 <= u5_t1_h14 <= 1;
0 <= u5_t1_h15 <= 1;
0 <= u5_t1_h16 <= 1;
0 <= u5_t1_h17 <= 1;
0 <= u5_t1_h18 <= 1;
0 <= u5_t1_h19 <= 1;
0 <= u5_t1_h20 <= 1;
u5_t1_h4 + u5_t1_h5 + u5_t1_h6 + u5_t1_h7 + u5_t1_h8 + u5_t1_h9 + u5_t1_h10 + u5_t1_h11 + u5_t1_h12 + u5_t1_h13 + u5_t1_h14 + u5_t1_h15 + u5_t1_h16 + u5_t1_h17 + u5_t1_h18 + u5_t1_h19 + u5_t1_h20 = 1;
0 <= u5_t2_h18 <= 1;
0 <= u5_t2_h19 <= 1;
0 <= u5_t2_h20 <= 1;
0 <= u5_t2_h21 <= 1;
0 <= u5_t2_h22 <= 1;
u5_t2_h18 + u5_t2_h19 + u5_t2_h20 + u5_t2_h21 + u5_t2_h22 = 3;
0 <= u5_t3_h4 <= 1;
0 <= u5_t3_h5 <= 1;
0 <= u5_t3_h6 <= 1;
0 <= u5_t3_h7 <= 1;
0 <= u5_t3_h8 <= 1;
0 <= u5_t3_h9 <= 1;
0 <= u5_t3_h10 <= 1;
0 <= u5_t3_h11 <= 1;
0 <= u5_t3_h12 <= 1;
0 <= u5_t3_h13 <= 1;
0 <= u5_t3_h14 <= 1;
0 <= u5_t3_h15 <= 1;
0 <= u5_t3_h16 <= 1;
u5_t3_h4 + u5_t3_h5 + u5_t3_h6 + u5_t3_h7 + u5_t3_h8 + u5_t3_h9 + u5_t3_h10 + u5_t3_h11 + u5_t3_h12 + u5_t3_h13 + u5_t3_h14 + u5_t3_h15 + u5_t3_h16 = 1;
0 <= u5_t4_h2 <= 1;
0 <= u5_t4_h3 <= 1;
0 <= u5_t4_h4 <= 1;
0 <= u5_t4_h5 <= 1;
0 <= u5_t4_h6 <= 1;
0 <= u5_t4_h7 <= 1;
0 <= u5_t4_h8 <= 1;
0 <= u5_t4_h9 <= 1;
0 <= u5_t4_h10 <= 1;
0 <= u5_t4_h11 <= 1;
0 <= u5_t4_h12 <= 1;
0 <= u5_t4_h13 <= 1;
0 <= u5_t4_h14 <= 1;
0 <= u5_t4_h15 <= 1;
0 <= u5_t4_h16 <= 1;
u5_t4_h2 + u5_t4_h3 + u5_t4_h4 + u5_t4_h5 + u5_t4_h6 + u5_t4_h7 + u5_t4_h8 + u5_t4_h9 + u5_t4_h10 + u5_t4_h11 + u5_t4_h12 + u5_t4_h13 + u5_t4_h14 + u5_t4_h15 + u5_t4_h16 = 3;
0 <= u5_t5_h16 <= 1;
0 <= u5_t5_h17 <= 1;
0 <= u5_t5_h18 <= 1;
0 <= u5_t5_h19 <= 1;
0 <= u5_t5_h20 <= 1;
0 <= u5_t5_h21 <= 1;
0 <= u5_t5_h22 <= 1;
0 <= u5_t5_h23 <= 1;
u5_t5_h16 + u5_t5_h17 + u5_t5_h18 + u5_t5_h19 + u5_t5_h20 + u5_t5_h21 + u5_t5_h22 + u5_t5_h23 = 2;
0 <= u5_t6_h6 <= 1;
0 <= u5_t6_h7 <= 1;
0 <= u5_t6_h8 <= 1;
0 <= u5_t6_h9 <= 1;
0 <= u5_t6_h10 <= 1;
0 <= u5_t6_h11 <= 1;
0 <= u5_t6_h12 <= 1;
0 <= u5_t6_h13 <= 1;
0 <= u5_t6_h14 <= 1;
0 <= u5_t6_h15 <= 1;
0 <= u5_t6_h16 <= 1;
0 <= u5_t6_h17 <= 1;
0 <= u5_t6_h18 <= 1;
u5_t6_h6 + u5_t6_h7 + u5_t6_h8 + u5_t6_h9 + u5_t6_h10 + u5_t6_h11 + u5_t6_h12 + u5_t6_h13 + u5_t6_h14 + u5_t6_h15 + u5_t6_h16 + u5_t6_h17 + u5_t6_h18 = 2;
0 <= u5_t7_h2 <= 1;
0 <= u5_t7_h3 <= 1;
0 <= u5_t7_h4 <= 1;
0 <= u5_t7_h5 <= 1;
0 <= u5_t7_h6 <= 1;
u5_t7_h2 + u5_t7_h3 + u5_t7_h4 + u5_t7_h5 + u5_t7_h6 = 1;
0 <= u5_t8_h13 <= 1;
0 <= u5_t8_h14 <= 1;
0 <= u5_t8_h15 <= 1;
0 <= u5_t8_h16 <= 1;
0 <= u5_t8_h17 <= 1;
u5_t8_h13 + u5_t8_h14 + u5_t8_h15 + u5_t8_h16 + u5_t8_h17 = 3;
0 <= u5_t9_h15 <= 1;
0 <= u5_t9_h16 <= 1;
0 <= u5_t9_h17 <= 1;
0 <= u5_t9_h18 <= 1;
0 <= u5_t9_h19 <= 1;
0 <= u5_t9_h20 <= 1;
0 <= u5_t9_h21 <= 1;
0 <= u5_t9_h22 <= 1;
0 <= u5_t9_h23 <= 1;
u5_t9_h15 + u5_t9_h16 + u5_t9_h17 + u5_t9_h18 + u5_t9_h19 + u5_t9_h20 + u5_t9_h21 + u5_t9_h22 + u5_t9_h23 = 1;
0 <= u5_t10_h17 <= 1;
0 <= u5_t10_h18 <= 1;
0 <= u5_t10_h19 <= 1;
0 <= u5_t10_h20 <= 1;
0 <= u5_t10_h21 <= 1;
0 <= u5_t10_h22 <= 1;
0 <= u5_t10_h23 <= 1;
u5_t10_h17 + u5_t10_h18 + u5_t10_h19 + u5_t10_h20 + u5_t10_h21 + u5_t10_h22 + u5_t10_h23 = 1;
